c preprocessed version of graph05-wpp, 85 vertices, 386 edges
p td 85 386
0 1
0 2
0 6
0 3
0 72
0 5
0 4
1 2
1 6
1 4
44 1
2 3
2 72
3 4
3 11
3 71
5 4
6 4
4 18
4 65
4 63
4 64
5 6
5 72
5 71
28 5
45 5
6 7
7 8
7 50
7 52
7 24
7 51
7 57
44 7
25 7
46 7
9 8
8 50
8 39
8 52
8 24
8 51
8 57
25 8
10 9
9 16
9 75
9 11
41 9
10 11
10 15
10 16
10 75
10 55
10 13
43 10
11 12
15 11
14 11
16 11
75 11
51 11
42 11
67 11
13 12
27 12
57 12
26 12
74 12
69 12
14 13
16 13
75 13
14 15
14 71
14 75
54 14
15 16
68 15
17 16
17 18
59 17
17 53
41 17
17 26
17 61
17 54
40 17
18 19
18 62
55 18
18 65
18 64
18 63
20 19
47 19
38 19
37 19
19 39
19 36
40 19
20 21
27 20
20 47
20 38
20 36
20 37
20 39
69 20
70 20
22 21
38 21
37 21
32 21
21 36
30 21
59 21
68 21
67 21
22 23
55 22
22 62
22 64
22 65
22 63
22 66
24 23
35 23
43 23
30 23
44 23
25 23
25 24
50 24
34 24
24 51
52 24
24 57
46 24
25 26
25 47
25 51
25 50
25 52
25 29
25 57
25 28
25 73
25 74
26 27
26 29
26 28
26 73
26 74
28 27
73 27
74 27
28 29
28 55
28 74
28 73
29 30
73 29
29 74
53 29
30 31
43 30
30 42
30 44
69 30
31 32
31 56
31 35
31 60
59 31
31 43
44 31
61 31
46 31
32 33
32 56
32 60
32 35
33 34
60 33
33 58
33 35
33 57
61 33
59 33
34 35
56 34
58 34
36 35
56 35
59 35
60 35
58 35
37 36
50 36
39 36
69 36
38 37
48 37
38 39
48 38
40 39
46 39
40 41
40 54
40 59
40 61
40 53
40 52
45 40
49 40
68 40
69 40
40 48
40 46
40 70
40 67
41 42
41 54
59 41
41 53
41 61
43 42
44 42
43 44
45 43
45 46
45 69
45 68
45 49
45 70
45 67
48 45
46 47
49 46
68 46
69 46
70 46
46 48
46 67
48 47
48 49
68 48
69 48
70 48
67 48
49 50
49 67
49 69
49 68
49 70
50 51
50 52
50 57
70 50
52 51
71 51
51 57
53 52
52 57
67 52
54 53
53 59
61 53
54 55
54 59
61 54
55 56
55 62
55 64
55 66
55 65
56 57
56 58
59 56
59 58
60 58
59 60
61 59
63 62
66 62
63 64
65 63
63 66
65 64
66 64
65 66
68 67
69 67
70 67
68 69
68 70
69 70
72 71
73 74
76 0
76 23
76 27
76 26
76 31
76 30
76 28
76 83
76 42
76 43
76 44
76 73
76 77
76 78
76 79
76 80
76 81
76 82
77 1
77 2
77 84
77 20
77 83
77 81
77 78
77 79
77 82
77 80
78 4
78 83
78 81
78 39
78 79
78 82
78 80
79 83
79 81
79 43
79 75
79 82
79 80
80 9
80 10
80 11
80 13
80 16
80 83
80 81
80 82
81 7
81 8
81 9
81 25
81 50
81 24
81 83
81 52
81 51
81 57
81 39
81 82
82 84
82 50
82 83
82 45
83 84
83 11
83 62
83 64
84 76
84 78
84 79
84 80
84 81
84 8
84 18
84 23
84 38
84 65
84 42
84 43
84 30
84 44
84 45
84 49
